WARNING: for repeatability, setting FPU to use double precision
============================[ Problem Statistics ]=============================
|                                                                             |
|  Number of variables:           100                                         |
|  Number of clauses:             449                                         |
|  Parse time:                   0.00 s                                       |
|  Eliminated clauses:           0.00 Mb                                      |
|  Simplification time:          0.00 s                                       |
|                                                                             |
============================[ Search Statistics ]==============================
| Conflicts |          ORIGINAL         |          LEARNT          | Progress |
|           |    Vars  Clauses Literals |    Limit  Clauses Lit/Cl |          |
===============================================================================
|       100 |      96      446     1360 |      163      100      7 |  0.010 % |
|       250 |      96      446     1360 |      179      165      7 |  0.010 % |
===============================================================================
restarts              : 4
conflicts             : 411            (inf /sec)
decisions             : 516            (0.00 % random) (inf /sec)
propagations          : 9902           (inf /sec)
conflict literals     : 2699           (19.79 % deleted)
Memory used           : 13.00 MB
CPU time              : 0 s

SATISFIABLE
